p cnf 75 225
1 -75 -56 0
1 -75 -52 0
1 -75 -22 0
1 -74 -47 0
1 -74 -13 0
1 -74 11 0
1 -73 -71 0
1 -73 9 0
1 -73 42 0
1 -72 -42 0
1 -72 2 0
1 -72 7 0
1 -71 -18 0
1 -71 -11 0
1 -70 -30 0
1 -70 29 0
1 -70 41 0
1 -69 -19 0
1 -69 17 0
1 -69 40 0
1 -68 -59 0
1 -68 -52 0
1 -68 -33 0
1 -67 -9 0
1 -67 37 0
1 -67 43 0
1 -66 -39 0
1 -66 -26 0
1 -66 1 0
1 -65 -57 0
1 -65 -47 0
1 -65 -17 0
1 -64 -6 0
1 -64 41 0
1 -64 53 0
1 -63 -53 0
1 -63 3 0
1 -63 8 0
1 -62 -2 0
1 -62 30 0
1 -62 59 0
1 -61 -53 0
1 -61 -37 0
1 -61 31 0
1 -60 -31 0
1 -60 26 0
1 -60 34 0
1 -59 14 0
1 -59 46 0
1 -58 -34 0
1 -58 -18 0
1 -58 -1 0
1 -57 -22 0
1 -57 64 0
1 -56 -5 0
1 -56 -4 0
1 -55 -48 0
1 -55 -28 0
1 -55 18 0
1 -54 -51 0
1 -54 -23 0
1 -54 67 0
1 -53 -39 0
1 -52 23 0
1 -51 44 0
1 -51 71 0
1 -50 -49 0
1 -50 -32 0
1 -50 -29 0
1 -49 -46 0
1 -49 6 0
1 -48 -32 0
1 -48 55 0
1 -47 6 0
1 -46 -28 0
1 -46 5 0
1 -45 -34 0
1 -45 -20 0
1 -45 35 0
1 -44 -23 0
1 -44 18 0
1 -44 20 0
1 -43 17 0
1 -43 19 0
1 -43 68 0
1 -42 24 0
1 -42 61 0
1 -41 -6 0
1 -41 12 0
1 -41 31 0
1 -40 -31 0
1 -40 -28 0
1 -40 57 0
1 -39 52 0
1 -38 -23 0
1 -38 28 0
1 -38 31 0
1 -37 -22 0
1 -37 -5 0
1 -36 -16 0
1 -36 46 0
1 -36 51 0
1 -35 -14 0
1 -35 28 0
1 -35 70 0
1 -34 -3 0
1 -33 6 0
1 -33 65 0
1 -32 58 0
1 -31 55 0
1 -30 -19 0
1 -30 19 0
1 -29 -12 0
1 -29 7 0
1 -27 4 0
1 -27 18 0
1 -27 39 0
1 -26 13 0
1 -26 36 0
1 -25 9 0
1 -25 34 0
1 -25 54 0
1 -24 46 0
1 -24 51 0
1 -24 65 0
1 -21 -15 0
1 -21 59 0
1 -21 71 0
1 -20 -7 0
1 -20 38 0
1 -19 56 0
1 -18 32 0
1 -17 28 0
1 -17 64 0
1 -16 63 0
1 -16 66 0
1 -15 27 0
1 -15 30 0
1 -14 40 0
1 -14 56 0
1 -13 5 0
1 -13 21 0
1 -12 -7 0
1 -12 22 0
1 -11 57 0
1 -11 75 0
1 -10 5 0
1 -10 24 0
1 -10 38 0
1 -9 -1 0
1 -9 22 0
1 -8 48 0
1 -8 72 0
1 -8 74 0
1 -7 54 0
1 -6 12 0
1 -5 -2 0
1 -4 9 0
1 -4 30 0
1 -3 39 0
1 -3 68 0
1 -2 38 0
1 -1 63 0
1 1 63 0
1 1 75 0
1 2 40 0
1 2 64 0
1 3 7 0
1 3 33 0
1 4 50 0
1 4 60 0
1 8 47 0
1 8 52 0
1 10 21 0
1 10 22 0
1 10 42 0
1 11 44 0
1 11 62 0
1 12 17 0
1 13 26 0
1 13 54 0
1 14 25 0
1 14 36 0
1 15 16 0
1 15 37 0
1 15 44 0
1 16 48 0
1 16 50 0
1 19 62 0
1 20 25 0
1 20 27 0
1 21 69 0
1 23 35 0
1 23 72 0
1 24 60 0
1 25 73 0
1 26 27 0
1 29 35 0
1 29 65 0
1 32 34 0
1 32 58 0
1 33 36 0
1 33 53 0
1 37 75 0
1 39 49 0
1 41 67 0
1 42 43 0
1 43 47 0
1 45 50 0
1 45 56 0
1 45 61 0
1 47 62 0
1 48 58 0
1 49 69 0
1 49 71 0
1 51 67 0
1 52 73 0
1 53 59 0
1 55 66 0
1 57 74 0
1 60 73 0
1 61 74 0
1 66 72 0
1 68 70 0
1 69 70 0
